NAME: inst8.atsp
TYPE: ATSP
DIMENSION: 10
EDGE_WEIGHT_TYPE: EXPLICIT
EDGE_WEIGHT_FORMAT: FULL_MATRIX
EDGE_WEIGHT_SECTION:
0 98 13 60 87 83 17 41 7 14
16 0 39 48 17 30 49 88 4 22
34 63 0 1 1 66 54 52 24 86
32 44 84 0 79 73 49 89 45 55
59 3 14 88 0 43 85 86 47 14
25 10 6 45 12 0 7 82 94 88
27 70 35 66 7 18 0 32 77 7
93 28 35 34 63 24 75 0 51 42
53 53 36 95 64 32 84 18 0 54
40 30 93 100 14 24 10 47 66 0
EOF